%SETS
JOBS     = 1..20;
MACHINES = 1..5;
SPEED    = 5;

time        = array3d(JOBS,MACHINES,1..SPEED,[58, 20, 14, 11, 10, 3, 1, 1, 1, 1, 6, 2, 1, 1, 1, 1, 1, 1, 1, 1, 15, 5, 3, 3, 2, 1, 1, 1, 1, 1, 15, 5, 3, 3, 2, 27, 9, 6, 5, 4, 8, 2, 2, 1, 1, 29, 10, 7, 5, 5, 23, 7, 5, 4, 4, 1, 1, 1, 1, 1, 21, 7, 5, 4, 3, 7, 2, 1, 1, 1, 13, 4, 3, 2, 2, 8, 2, 2, 1, 1, 30, 10, 7, 6, 5, 15, 5, 3, 3, 2, 4, 1, 1, 1, 1, 20, 7, 4, 4, 3, 39, 13, 9, 7, 7, 9, 3, 2, 1, 1, 6, 2, 1, 1, 1, 12, 4, 3, 2, 2, 71, 24, 17, 14, 12, 96, 33, 23, 19, 17, 28, 9, 7, 5, 5, 60, 20, 14, 12, 10, 48, 16, 11, 9, 8, 12, 4, 3, 2, 2, 2, 1, 1, 1, 1, 27, 9, 6, 5, 4, 21, 7, 5, 4, 3, 11, 4, 2, 2, 2, 6, 2, 1, 1, 1, 13, 4, 3, 2, 2, 16, 5, 4, 3, 2, 8, 2, 1, 1, 1, 8, 3, 2, 1, 1, 15, 5, 3, 3, 2, 50, 17, 12, 10, 9, 22, 7, 5, 4, 4, 8, 2, 2, 1, 1, 8, 2, 2, 1, 1, 15, 5, 3, 3, 2, 5, 2, 1, 1, 1, 5, 2, 1, 1, 1, 18, 6, 4, 3, 3, 2, 1, 1, 1, 1, 17, 5, 4, 3, 3, 11, 4, 2, 2, 2, 31, 10, 7, 6, 5, 35, 12, 8, 7, 6, 30, 10, 7, 6, 5, 30, 10, 7, 6, 5, 12, 4, 2, 2, 2, 28, 9, 6, 5, 5, 10, 3, 2, 2, 1, 22, 7, 5, 4, 3, 10, 3, 2, 2, 1, 15, 5, 3, 3, 2, 1, 1, 1, 1, 1, 7, 2, 1, 1, 1, 92, 31, 22, 18, 16, 6, 2, 1, 1, 1, 30, 10, 7, 6, 5, 27, 9, 6, 5, 4, 33, 11, 8, 6, 5, 16, 5, 4, 3, 3, 23, 8, 5, 4, 4, 1, 1, 1, 1, 1, 1, 1, 1, 1, 1, 5, 1, 1, 1, 1, 4, 1, 1, 1, 1, 2, 1, 1, 1, 1, 3, 1, 1, 1, 1, 20, 7, 5, 4, 3, 5, 1, 1, 1, 1, 78, 27, 19, 15, 14, 29, 10, 7, 6, 5, 20, 6, 4, 4, 3, 31, 10, 7, 6, 5, 7, 2, 1, 1, 1, 67, 23, 16, 13, 12, 47, 16, 11, 9, 8, 33, 11, 8, 6, 6, 16, 5, 4, 3, 3, 47, 16, 11, 9, 8, 35, 12, 8, 7, 6, 27, 9, 6, 5, 5, 63, 21, 15, 12, 11, 25, 8, 6, 5, 4, 11, 4, 2, 2, 2, 20, 7, 5, 4, 3, 5, 1, 1, 1, 1, 5, 1, 1, 1, 1, 33, 11, 8, 6, 6, 39, 13, 9, 8, 7, 92, 31, 22, 18, 16, 49, 17, 12, 10, 8]);
energy      = array3d(JOBS,MACHINES,1..SPEED,[55, 81, 86, 89, 90, 97, 99, 99, 99, 99, 94, 98, 99, 99, 99, 99, 99, 99, 99, 99, 86, 95, 97, 97, 98, 99, 99, 99, 99, 99, 86, 95, 97, 97, 98, 76, 91, 94, 95, 96, 92, 98, 98, 99, 99, 74, 90, 93, 95, 95, 79, 93, 95, 96, 96, 99, 99, 99, 99, 99, 81, 93, 95, 96, 97, 93, 98, 99, 99, 99, 87, 96, 97, 98, 98, 92, 98, 98, 99, 99, 74, 90, 93, 94, 95, 86, 95, 97, 97, 98, 96, 99, 99, 99, 99, 81, 93, 96, 96, 97, 67, 87, 91, 93, 93, 91, 97, 98, 99, 99, 94, 98, 99, 99, 99, 88, 96, 97, 98, 98, 49, 78, 84, 86, 88, 38, 71, 79, 82, 84, 75, 91, 93, 95, 95, 54, 81, 86, 88, 90, 61, 85, 89, 91, 92, 88, 96, 97, 98, 98, 98, 99, 99, 99, 99, 76, 91, 94, 95, 96, 81, 93, 95, 96, 97, 89, 96, 98, 98, 98, 94, 98, 99, 99, 99, 87, 96, 97, 98, 98, 85, 95, 96, 97, 98, 92, 98, 99, 99, 99, 92, 97, 98, 99, 99, 86, 95, 97, 97, 98, 60, 84, 88, 90, 91, 80, 93, 95, 96, 96, 92, 98, 98, 99, 99, 92, 98, 98, 99, 99, 86, 95, 97, 97, 98, 95, 98, 99, 99, 99, 95, 98, 99, 99, 99, 83, 94, 96, 97, 97, 98, 99, 99, 99, 99, 84, 95, 96, 97, 97, 89, 96, 98, 98, 98, 73, 90, 93, 94, 95, 70, 88, 92, 93, 94, 74, 90, 93, 94, 95, 74, 90, 93, 94, 95, 88, 96, 98, 98, 98, 75, 91, 94, 95, 95, 90, 97, 98, 98, 99, 80, 93, 95, 96, 97, 90, 97, 98, 98, 99, 86, 95, 97, 97, 98, 99, 99, 99, 99, 99, 93, 98, 99, 99, 99, 39, 73, 80, 83, 85, 94, 98, 99, 99, 99, 74, 90, 93, 94, 95, 76, 91, 94, 95, 96, 71, 89, 92, 94, 95, 85, 95, 96, 97, 97, 79, 92, 95, 96, 96, 99, 99, 99, 99, 99, 99, 99, 99, 99, 99, 95, 99, 99, 99, 99, 96, 99, 99, 99, 99, 98, 99, 99, 99, 99, 97, 99, 99, 99, 99, 81, 93, 95, 96, 97, 95, 99, 99, 99, 99, 45, 76, 82, 86, 86, 74, 90, 93, 94, 95, 81, 94, 96, 96, 97, 73, 90, 93, 94, 95, 93, 98, 99, 99, 99, 51, 79, 85, 87, 88, 62, 85, 89, 91, 92, 71, 89, 92, 94, 94, 85, 95, 96, 97, 97, 62, 85, 89, 91, 92, 70, 88, 92, 93, 94, 76, 91, 94, 95, 95, 53, 81, 86, 88, 89, 77, 92, 94, 95, 96, 89, 96, 98, 98, 98, 81, 93, 95, 96, 97, 95, 99, 99, 99, 99, 95, 99, 99, 99, 99, 71, 89, 92, 94, 94, 67, 87, 91, 92, 93, 39, 73, 80, 83, 85, 61, 84, 88, 90, 92]);
precedence  = array2d(JOBS,MACHINES,[0, 3, 1, 2, 4, 1, 0, 2, 3, 4, 2, 3, 0, 4, 1, 4, 1, 2, 0, 3, 0, 1, 2, 3, 4, 0, 1, 3, 2, 4, 2, 0, 4, 3, 1, 4, 1, 3, 2, 0, 2, 0, 4, 1, 3, 3, 1, 0, 2, 4, 1, 3, 0, 4, 2, 4, 3, 0, 1, 2, 0, 4, 1, 3, 2, 4, 1, 2, 0, 3, 2, 4, 3, 0, 1, 2, 0, 4, 1, 3, 4, 2, 0, 3, 1, 2, 3, 0, 4, 1, 4, 0, 2, 1, 3, 3, 2, 4, 1, 0]);
releaseDate = [100, 80, 100, 80, 40, 10, 40, 0, 50, 60, 70, 0, 70, 80, 10, 50, 30, 100, 60, 90];
dueDate     = [131, 101, 119, 104, 60, 112, 50, 13, 84, 68, 105, 18, 100, 112, 14, 89, 66, 158, 80, 151];